4 
5  15 28 49 
6  05 12 20 27 35 45 53 
7  00 07 15 22 30 37 45 52 
8  00 07 15 22 30 37 45 52 
9  00 07 15 22 30 37 45 52 
10  07 22 37 52 
11  07 22 37 52 
12  07 22 37 52 
13  07 22 37 45 52 
14  00 07 15 22 30 37 45 52 
15  00 07 15 22 30 37 45 52 
16  00 07 15 22 30 37 45 52 
17  00 07 15 22 30 37 45 52 
18  00 07 15 22 30 37 45 52 
19  00 07 15 22 30 37 45 52 
20  00 07 15 22 30 45 
21  00 15 30 45 
22  00 15 30 45 
23  00 16 
0 
